
Gurobi 9.1.2 (win64) logging started Mon Dec  6 14:02:24 2021

Gurobi Optimizer version 9.1.2 build v9.1.2rc0 (win64)
Thread count: 8 physical cores, 8 logical processors, using up to 8 threads
Optimize a model with 1 rows, 45 columns and 44 nonzeros
Model fingerprint: 0xbea55769
Variable types: 1 continuous, 44 integer (44 binary)
Coefficient statistics:
  Matrix range     [1e+00, 1e+01]
  Objective range  [1e+00, 1e+00]
  Bounds range     [2e+01, 2e+01]
  RHS range        [1e+01, 1e+01]
Presolve time: 0.00s
Presolved: 1 rows, 45 columns, 44 nonzeros
Variable types: 1 continuous, 44 integer (44 binary)

Root simplex log...

Iteration    Objective       Primal Inf.    Dual Inf.      Time
       0   -1.7998672e+01   4.675706e-02   0.000000e+00     14s
       2   -1.7998672e+01   0.000000e+00   0.000000e+00     14s

Root relaxation: objective -1.799867e+01, 2 iterations, 0.00 seconds

    Nodes    |    Current Node    |     Objective Bounds      |     Work
 Expl Unexpl |  Obj  Depth IntInf | Incumbent    BestBd   Gap | It/Node Time

     0     0  -17.99867    0    3          -  -17.99867      -     -   14s
H    0     0                       0.8782963  -17.99867  2149%     -   14s
H    0     0                       0.6252921  -17.99867  2978%     -   14s
H    0     0                       0.2708952  -17.99867  6744%     -   15s
*    0     0               0     -17.9986723  -17.99867  0.00%     -   15s

Cutting planes:
  Cover: 1
  Clique: 2
  MIR: 3
  StrongCG: 1
  RLT: 1
  Lazy constraints: 5

Explored 1 nodes (14 simplex iterations) in 15.08 seconds
Thread count was 8 (of 8 available processors)

Solution count 4: -17.9987 0.270895 0.625292 0.878296 
No other solutions better than -17.9987

Optimal solution found (tolerance 1.00e-04)
Best objective -1.799867227062e+01, best bound -1.799867227062e+01, gap 0.0000%

User-callback calls 90, time in user-callback 18.78 sec
